c Random Network
p max    10      20
n         1  s
n        10  t
a       5       3      41
a       8       4      11
a       5       1      38
a       9       3      13
a       1       2       7
a       1       5      39
a       2       4      13
a       8       1      16
a       9       5      33
a       5       7      27
a       8       9      20
a       8       2      16
a       8       3      33
a       6       4      21
a       4       5      41
a       4       7      29
a       5       4      36
a       1       7      27
a       1       4      29
a       2       1      46
